c ---- [ banner ] ------------------------------------------------------------
c
c Kissat SAT Solver
c 
c Copyright (c) 2021-2024 Armin Biere University of Freiburg
c Copyright (c) 2019-2021 Armin Biere Johannes Kepler University Linz
c 
c Version 4.0.1 43f02cf3e992cb44653b35e5cb26f93281552ae0
c gcc (Ubuntu 13.2.0-23ubuntu4) 13.2.0 -W -Wall -O3 -DNDEBUG
c Thu Sep 12 12:27:46 CEST 2024 Linux abryzen9 6.8.0-41-generic x86_64
c
c ---- [ parsing ] -----------------------------------------------------------
c
c opened and reading DIMACS file:
c
c   /data/artifact/AMulet2.0_artifact/exp4/cnf_dc2_64/64_64_U_SP_WT_CL_GenMul_dc2.cnf
c
c parsed 'p cnf 30954 134639' header
c closing input after reading 2690858 bytes (3 MB)
c finished parsing after 0.04 seconds
c
c ---- [ options ] -----------------------------------------------------------
c
c --stable=0                       (different from default '1')
c
c ---- [ solving ] -----------------------------------------------------------
c
c  seconds switched rate     size/glue tier1  binary           remaining
c         MB reductions conflicts size  tier2     irredundant
c          level restarts redundant glue  trail           variables
c
c *  0.04 10 0 0 0  0 0   0   0 0.0 0 0 0 0 0% 13219 121418 30951 100%
c (  0.06 13 0 0 0  0 0   0   0 0.0 0 0 0 0 0% 13219 121418 30951 100%
c .  0.07 13 0 0 0  0 0   0   0 0.0 0 0 0 0 0% 13215 121418 30951 100%
c c  0.18 18 0 0 0  0 0   0   0 0.0 0 0 0 0 0% 20149 107745 27482 89%
c d  0.19 18 0 0 0  0 0   0   0 0.0 0 0 0 0 0% 13211 107745 27482 89%
c =  0.25 18 0 0 0  0 0   0   0 0.0 0 0 0 0 0% 13537 107745 27254 88%
c d  0.26 18 0 0 0  0 0   0   0 0.0 0 0 0 0 0% 13081 107745 27254 88%
c f  0.39 19 0 0 0  0 0   0   0 0.0 0 0 0 0 0% 18098 99871 30046 97%
c e  0.59 26 0 0 0  0 0   0   0 0.0 0 0 0 0 0% 11606 108159 20835 67%
c )  0.59 26 0 0 0  0 0   0   0 0.0 0 0 0 0 0% 11606 108159 20835 67%
c {  0.62 26 0 0 0  0 0   0   0 0.0 0 0 2 6 0% 11606 108159 20835 67%
c -  0.90 28 303 0 1 246 54 1000 663 4.1 27 7 3 9 17% 11718 108153 20835 67%
c -  1.14 28 289 0 2 327 43 2002 1343 3.7 23 6 3 9 24% 11774 108136 20835 67%
c c  1.28 25 293 0 2 351 39 2505 1758 3.6 22 6 3 10 24% 11931 107724 20773 67%
c d  1.29 25 293 0 2 351 39 2505 1749 3.6 22 6 3 10 24% 11807 107724 20773 67%
c u  1.31 25 293 0 2 351 39 2505 1435 3.6 22 6 3 10 24% 11815 107724 20773 67%
c v  1.33 25 293 0 2 351 39 2505 1322 3.6 22 6 3 10 24% 11815 107724 20773 67%
c w  1.35 25 293 0 2 351 39 2505 1322 3.6 22 6 3 10 24% 11815 107724 20773 67%
c x  1.37 25 293 0 2 351 39 2505 1322 3.6 22 6 3 10 24% 11918 107514 20773 67%
c =  1.45 25 293 0 2 351 39 2505 1322 3.6 22 6 3 10 24% 12346 107514 20559 66%
c
c  seconds   switched   rate       size/glue tier1     binary           remaining
c         MB  reductions conflicts       size  tier2       irredundant
c           level restarts    redundant    glue    trail           variables
c
c d  1.46 25 293 0 2 351 39 2505 1321 3.6 22 6 3 10 24% 11914 107514 20558 66%
c t  1.47 25 293 0 2 351 39 2505 1321 3.6 22 6 3 10 24% 11886 107514 20558 66%
c f  1.50 25 293 0 2 351 39 2505 1321 3.6 22 6 3 10 24% 12432 106396 21116 68%
c u  1.59 25 293 0 2 351 39 2505 1292 3.6 22 6 3 10 24% 12436 106396 21116 68%
c v  1.61 25 293 0 2 351 39 2505 1204 3.6 22 6 3 10 24% 12436 106396 21116 68%
c w  1.64 25 293 0 2 351 39 2505 1202 3.6 22 6 3 10 24% 12436 106396 21116 68%
c x  1.66 25 293 0 2 351 39 2505 1202 3.6 22 6 3 10 24% 12436 106192 21116 68%
c =  1.73 25 293 0 2 351 39 2505 1202 3.6 22 6 3 10 24% 12740 106192 20964 68%
c d  1.74 25 293 0 2 351 39 2505 1202 3.6 22 6 3 10 24% 12432 106192 20964 68%
c f  1.78 25 293 0 2 351 39 2505 1202 3.6 22 6 3 10 24% 12458 106153 20977 68%
c -  2.06 27 268 0 3 477 36 3416 1601 4.0 26 7 3 10 23% 12521 106150 20977 68%
c -  2.51 27 347 0 4 625 35 5148 2704 3.8 28 7 2 10 23% 12596 106147 20977 68%
c -  3.08 27 387 0 5 828 35 7149 3812 3.6 27 7 2 10 24% 12698 106137 20977 68%
c d  3.22 28 377 0 5 851 34 7713 4284 3.6 26 7 2 10 24% 12638 106137 20939 68%
c u  3.27 28 377 0 5 851 34 7713 3791 3.6 26 7 2 10 24% 12656 106137 20939 68%
c v  3.32 28 377 0 5 851 34 7713 3233 3.6 26 7 2 10 24% 12657 106137 20939 68%
c w  3.36 28 377 0 5 851 34 7713 3223 3.6 26 7 2 10 24% 12657 106137 20939 68%
c x  3.40 28 377 0 5 851 34 7713 3223 3.6 26 7 2 10 24% 12660 105438 20939 68%
c =  3.54 28 377 0 5 851 34 7713 3223 3.6 26 7 2 10 24% 13018 105438 20760 67%
c d  3.56 28 377 0 5 851 34 7713 3218 3.6 26 7 2 10 24% 12626 105438 20760 67%
c
c  seconds   switched   rate       size/glue tier1     binary           remaining
c         MB  reductions conflicts       size  tier2       irredundant
c           level restarts    redundant    glue    trail           variables
c
c t  3.58 28 377 0 5 851 34 7713 3218 3.6 26 7 2 10 24% 12602 105438 20760 67%
c f  3.64 28 377 0 5 851 34 7713 3218 3.6 26 7 2 10 24% 12788 105147 20855 67%
c u  3.77 28 377 0 5 851 34 7713 3127 3.6 26 7 2 10 24% 12792 105147 20855 67%
c v  3.81 28 377 0 5 851 34 7713 3061 3.6 26 7 2 10 24% 12792 105147 20855 67%
c w  3.84 28 377 0 5 851 34 7713 3055 3.6 26 7 2 10 24% 12792 105147 20855 67%
c x  3.88 28 377 0 5 851 34 7713 3055 3.6 26 7 2 10 24% 12792 105118 20855 67%
c =  4.01 28 377 0 5 851 34 7713 3055 3.6 26 7 2 10 24% 13580 105118 20461 66%
c d  4.02 28 377 0 5 851 34 7713 3042 3.6 26 7 2 10 24% 12688 105118 20461 66%
c t  4.04 28 377 0 5 851 34 7713 3042 3.6 26 7 2 10 24% 12648 105118 20461 66%
c f  4.09 28 377 0 5 851 34 7713 3042 3.6 26 7 2 10 24% 14920 101702 21599 70%
c -  4.45 28 377 0 6 970 33 9386 3869 3.6 25 7 2 10 24% 14987 101701 21599 70%
c o  4.48 28 410 0 6 971 31 10229 4578 3.5 24 7 2 10 23% 15046 101689 21599 70%
c -  4.96 28 383 0 7 1142 32 11835 5183 3.8 26 7 2 9 24% 15142 101688 21599 70%
c s  5.18 28 384 0 7 1211 32 12513 5771 3.9 26 7 2 9 24% 15170 96501 21599 70%
c e  5.32 28 384 0 7 1211 32 12513 5771 3.9 26 7 2 9 24% 13815 97554 20868 67%
c s  5.33 28 384 0 7 1211 32 12513 5771 3.9 26 7 2 9 24% 13831 96919 20868 67%
c e  5.34 28 384 0 7 1211 32 12513 5771 3.9 26 7 2 9 24% 13826 96922 20865 67%
c ^  5.34 28 384 0 7 1211 32 12513 5771 3.9 26 7 2 9 24% 13826 96922 20865 67%
c -  5.77 28 373 0 8 1347 31 14481 6319 3.8 26 7 2 9 24% 13881 96916 20865 67%
c d  6.20 28 375 0 8 1491 32 15795 7482 3.8 28 7 2 9 24% 13572 96915 20671 67%
c
c  seconds   switched    rate        size/glue tier1    binary          remaining
c         MB  reductions   conflicts       size  tier2      irredundant
c           level  restarts     redundant    glue   trail          variables
c
c u  6.25 28 375 0 8 1491 32 15795 6538 3.8 28 7 2 9 24% 13605 96915 20671 67%
c v  6.30 28 375 0 8 1491 32 15795 5687 3.8 28 7 2 9 24% 13606 96915 20671 67%
c w  6.42 28 375 0 8 1491 32 15795 5686 3.8 28 7 2 9 24% 13606 96915 20671 67%
c =  6.60 28 375 0 8 1491 32 15795 5686 3.8 28 7 2 9 24% 14484 96915 20232 65%
c d  6.61 28 375 0 8 1491 32 15795 5637 3.8 28 7 2 9 24% 13394 96915 20226 65%
c t  6.64 28 375 0 8 1491 32 15795 5637 3.8 28 7 2 9 24% 13305 96915 20226 65%
c f  6.70 28 375 0 8 1491 32 15795 5637 3.8 28 7 2 9 24% 13421 96658 20291 66%
c u  6.76 28 375 0 8 1491 32 15795 5430 3.8 28 7 2 9 24% 13426 96658 20291 66%
c v  6.80 28 375 0 8 1491 32 15795 5292 3.8 28 7 2 9 24% 13426 96658 20291 66%
c w  6.88 28 375 0 8 1491 32 15795 5273 3.8 28 7 2 9 24% 13426 96658 20291 66%
c x  6.92 28 375 0 8 1491 32 15795 5273 3.8 28 7 2 9 24% 13515 96304 20291 66%
c =  7.12 28 375 0 8 1491 32 15795 5273 3.8 28 7 2 9 24% 13791 96304 20153 65%
c d  7.13 28 375 0 8 1491 32 15795 5261 3.8 28 7 2 9 24% 13430 96304 20153 65%
c t  7.16 28 375 0 8 1491 32 15795 5261 3.8 28 7 2 9 24% 13421 96304 20153 65%
c f  7.19 28 375 0 8 1491 32 15795 5261 3.8 28 7 2 9 24% 13449 96248 20167 65%
c -  7.55 28 361 0 9 1581 31 17309 5894 3.8 28 7 2 9 25% 13488 96248 20167 65%
c o  8.37 28 362 0 9 1890 31 20246 8498 4.2 31 7 2 9 26% 13572 96244 20167 65%
c -  8.41 28 361 0 10 1906 31 20309 7555 4.2 32 8 2 9 26% 13574 96244 20167 65%
c -  8.85 28 332 0 11 2065 29 23471 9021 4.0 30 7 2 8 26% 13669 96242 20167 65%
c s  9.13 28 335 0 11 2204 29 25017 10395 4.0 29 7 2 8 26% 13742 94567 20167 65%
c
c  seconds   switched     rate         size/glue tier1    binary          remaining
c         MB   reductions   conflicts        size  tier2      irredundant
c           level   restarts      redundant    glue   trail          variables
c
c e  9.21 28 335 0 11 2204 29 25017 10395 4.0 29 7 2 8 26% 11100 98178 18724 60%
c s  9.22 28 335 0 11 2204 29 25017 10395 4.0 29 7 2 8 26% 11132 97780 18724 60%
c e  9.23 28 335 0 11 2204 29 25017 10395 4.0 29 7 2 8 26% 11103 97816 18715 60%
c ^  9.23 28 335 0 11 2204 29 25017 10395 4.0 29 7 2 8 26% 11103 97816 18715 60%
c -  9.44 28 320 0 12 2293 28 26787 9423 3.9 29 7 2 8 26% 11167 97807 18715 60%
c c  9.57 28 320 0 12 2326 29 26924 9557 3.9 29 7 2 8 26% 11231 97449 18663 60%
c d  9.58 28 320 0 12 2326 29 26924 9459 3.9 29 7 2 8 26% 10856 97449 18502 60%
c u  9.66 28 320 0 12 2326 29 26924 8315 3.9 29 7 2 8 26% 10869 97449 18502 60%
c v  9.73 28 320 0 12 2326 29 26924 7387 3.9 29 7 2 8 26% 10872 97449 18502 60%
c w  9.78 28 320 0 12 2326 29 26924 7379 3.9 29 7 2 8 26% 10872 97449 18502 60%
c x  9.87 28 320 0 12 2326 29 26924 7379 3.9 29 7 2 8 26% 10928 95910 18502 60%
c = 10.16 28 320 0 12 2326 29 26924 7379 3.9 29 7 2 8 26% 13462 95910 17235 56%
c d 10.18 28 320 0 12 2326 29 26924 7223 3.9 29 7 2 8 26% 10847 95910 17235 56%
c t 10.20 28 320 0 12 2326 29 26924 7223 3.9 29 7 2 8 26% 10775 95910 17235 56%
c f 10.28 28 320 0 12 2326 29 26924 7223 3.9 29 7 2 8 26% 10770 95824 17254 56%
c u 10.35 28 320 0 12 2326 29 26924 6858 3.9 29 7 2 8 26% 10777 95824 17254 56%
c v 10.40 28 320 0 12 2326 29 26924 6717 3.9 29 7 2 8 26% 10778 95824 17254 56%
c w 10.45 28 320 0 12 2326 29 26924 6715 3.9 29 7 2 8 26% 10778 95824 17254 56%
c x 10.57 28 320 0 12 2326 29 26924 6709 3.9 29 7 2 8 26% 10815 90890 17254 56%
c = 10.88 28 320 0 12 2326 29 26924 6709 3.9 29 7 2 8 26% 14699 90884 15312 49%
c
c  seconds   switched     rate        size/glue tier1    binary          remaining
c         MB   reductions   conflicts       size  tier2      irredundant
c           level   restarts     redundant    glue   trail          variables
c
c d 10.89 28 320 0 12 2326 29 26924 6564 3.9 29 7 2 8 26% 10748 90884 15312 49%
c t 10.92 28 320 0 12 2326 29 26924 6564 3.9 29 7 2 8 26% 10632 90884 15312 49%
c f 10.97 28 320 0 12 2326 29 26924 6564 3.9 29 7 2 8 26% 10639 90847 15321 49%
c - 11.69 28 302 0 13 2613 28 30251 8498 3.8 28 7 2 8 26% 10681 90847 15321 49%
c - 12.27 28 288 0 14 2820 27 33856 10366 3.7 27 7 2 8 25% 10758 90838 15321 49%
c - 12.92 28 275 0 15 3060 26 37597 12012 3.7 27 7 2 7 25% 10810 90836 15321 49%
c o 13.40 28 265 0 15 3211 25 40394 14370 3.6 26 7 2 7 24% 10869 90836 15321 49%
c c 13.76 28 262 0 15 3323 25 41251 15150 3.6 27 7 2 7 25% 10977 90178 15207 49%
c d 13.77 28 262 0 15 3323 25 41251 14719 3.6 27 7 2 7 25% 10746 90178 15205 49%
c u 13.84 28 262 0 15 3323 25 41251 12212 3.6 27 7 2 7 25% 10780 90178 15205 49%
c v 13.90 28 262 0 15 3323 25 41251 11451 3.6 27 7 2 7 25% 10782 90178 15205 49%
c w 13.95 28 262 0 15 3323 25 41251 11451 3.6 27 7 2 7 25% 10782 90178 15205 49%
c x 14.03 28 262 0 15 3323 25 41251 11451 3.6 27 7 2 7 25% 10785 82751 15205 49%
c = 14.28 28 262 0 15 3323 25 41251 11451 3.6 27 7 2 7 25% 12097 82751 14549 47%
c d 14.29 28 262 0 15 3323 25 41251 10891 3.6 27 7 2 7 25% 10714 82751 14547 47%
c t 14.31 28 262 0 15 3323 25 41251 10891 3.6 27 7 2 7 25% 10645 82751 14547 47%
c f 14.34 28 262 0 15 3323 25 41251 10891 3.6 27 7 2 7 25% 10655 82700 14560 47%
c c 14.41 28 262 0 15 3323 25 41251 10883 3.6 27 7 2 7 25% 10662 82684 14558 47%
c d 14.42 28 262 0 15 3323 25 41251 10883 3.6 27 7 2 7 25% 10658 82684 14558 47%
c u 14.48 28 262 0 15 3323 25 41251 10362 3.6 27 7 2 7 25% 10658 82684 14558 47%
c
c  seconds   switched     rate        size/glue tier1    binary          remaining
c         MB   reductions   conflicts       size  tier2      irredundant
c           level   restarts     redundant    glue   trail          variables
c
c v 14.54 28 262 0 15 3323 25 41251 9742 3.6 27 7 2 7 25% 10661 82684 14558 47%
c w 14.62 28 262 0 15 3323 25 41251 9742 3.6 27 7 2 7 25% 10661 82684 14558 47%
c x 14.69 28 262 0 15 3323 25 41251 9742 3.6 27 7 2 7 25% 10668 79624 14558 47%
c t 14.95 28 262 0 15 3323 25 41251 9742 3.6 27 7 2 7 25% 10667 79624 14558 47%
c - 14.99 28 262 0 16 3329 25 41470 8789 3.6 26 7 2 7 24% 10672 79624 14558 47%
c - 15.80 28 253 0 17 3632 25 45470 10958 3.5 26 7 2 7 25% 10725 79624 14558 47%
c - 16.61 28 247 0 18 3919 24 49594 13012 3.5 25 7 2 7 25% 10778 79624 14558 47%
c s 17.08 28 241 0 18 4045 24 52123 15252 3.4 25 7 2 7 24% 10822 69884 14558 47%
c e 17.18 28 241 0 18 4045 24 52123 15252 3.4 25 7 2 7 24% 9899 71329 14112 46%
c 2 17.18 28 241 0 18 4045 24 52123 15252 3.4 25 7 2 7 24% 9896 71329 14112 46%
c s 17.19 28 241 0 18 4045 24 52123 15252 3.4 25 7 2 7 24% 9907 71050 14112 46%
c e 17.20 28 241 0 18 4045 24 52123 15252 3.4 25 7 2 7 24% 9895 71060 14106 46%
c ^ 17.21 28 241 0 18 4045 24 52123 15252 3.4 25 7 2 7 24% 9895 71060 14106 46%
c - 17.66 28 240 0 19 4257 24 53837 13884 3.4 25 7 2 7 24% 9909 71060 14106 46%
c - 18.66 28 238 0 20 4707 24 58195 15675 3.4 26 7 2 6 25% 9986 71058 14106 46%
c d 18.82 28 238 0 20 4798 25 58885 16257 3.4 26 8 2 6 25% 9943 71058 14081 45%
c u 18.87 28 238 0 20 4798 25 58885 13643 3.4 26 8 2 6 25% 9975 71058 14081 45%
c v 18.92 28 238 0 20 4798 25 58885 12206 3.4 26 8 2 6 25% 9980 71058 14081 45%
c w 18.96 28 238 0 20 4798 25 58885 12204 3.4 26 8 2 6 25% 9980 71058 14081 45%
c x 19.02 28 238 0 20 4798 25 58885 12200 3.4 26 8 2 6 25% 10009 70340 14081 45%
c
c  seconds   switched     rate         size/glue tier1    binary         remaining
c         MB   reductions   conflicts        size  tier2     irredundant
c           level   restarts      redundant    glue   trail         variables
c
c d 19.02 28 238 0 20 4798 25 58885 12188 3.4 26 8 2 6 25% 9983 70340 14068 45%
c t 19.03 28 238 0 20 4798 25 58885 12188 3.4 26 8 2 6 25% 9928 70340 14068 45%
c f 19.05 28 238 0 20 4798 25 58885 12188 3.4 26 8 2 6 25% 9930 70264 14081 45%
c c 19.09 28 238 0 20 4798 25 58885 12141 3.4 26 8 2 6 25% 10000 70069 14055 45%
c d 19.09 28 238 0 20 4798 25 58885 12141 3.4 26 8 2 6 25% 9948 70069 14055 45%
c u 19.13 28 238 0 20 4798 25 58885 11577 3.4 26 8 2 6 25% 9956 70069 14055 45%
c v 19.16 28 238 0 20 4798 25 58885 11312 3.4 26 8 2 6 25% 9957 70069 14055 45%
c w 19.21 28 238 0 20 4798 25 58885 11263 3.4 26 8 2 6 25% 9957 70069 14055 45%
c x 19.27 28 238 0 20 4798 25 58885 11260 3.4 26 8 2 6 25% 9972 69899 14055 45%
c = 19.48 28 238 0 20 4798 25 58885 11260 3.4 26 8 2 6 25% 10002 69899 14040 45%
c d 19.49 28 238 0 20 4798 25 58885 11256 3.4 26 8 2 6 25% 9967 69899 14038 45%
c t 19.50 28 238 0 20 4798 25 58885 11256 3.4 26 8 2 6 25% 9956 69899 14038 45%
c - 19.87 28 232 0 21 5065 24 62667 13000 3.4 26 8 2 6 25% 10011 69892 14038 45%
c - 20.37 28 223 0 22 5482 24 67249 15265 3.4 26 8 2 6 25% 10066 69891 14038 45%
c o 20.70 28 219 0 22 5729 24 70487 18071 3.4 26 8 2 6 25% 10114 69891 14038 45%
c - 20.91 28 218 0 23 5941 24 71939 15391 3.4 26 8 1 6 25% 10129 69891 14038 45%
c - 21.74 28 216 0 24 6582 24 76734 16408 3.5 28 8 1 6 26% 10162 69890 14038 45%
c c 22.05 28 214 0 24 6779 24 79973 19222 3.5 27 8 1 6 25% 10292 69238 13915 45%
c d 22.05 28 214 0 24 6779 24 79973 18794 3.5 27 8 1 6 25% 10046 69238 13915 45%
c u 22.09 28 214 0 24 6779 24 79973 16943 3.5 27 8 1 6 25% 10066 69238 13915 45%
c
c  seconds   switched     rate         size/glue tier1    binary          remaining
c         MB   reductions   conflicts        size  tier2      irredundant
c           level   restarts      redundant    glue   trail          variables
c
c v 22.15 28 214 0 24 6779 24 79973 14262 3.5 27 8 1 6 25% 10083 69238 13915 45%
c w 22.27 28 214 0 24 6779 24 79973 14088 3.5 27 8 1 6 25% 10083 69238 13915 45%
c = 22.49 28 214 0 24 6779 24 79973 14088 3.5 27 8 1 6 25% 10515 69238 13699 44%
c d 22.49 28 214 0 24 6779 24 79973 13906 3.5 27 8 1 6 25% 10032 69238 13694 44%
c t 22.50 28 214 0 24 6779 24 79973 13906 3.5 27 8 1 6 25% 9967 69238 13694 44%
c f 22.51 28 214 0 24 6779 24 79973 13906 3.5 27 8 1 6 25% 9978 69156 13705 44%
c c 22.54 28 214 0 24 6779 24 79973 13896 3.5 27 8 1 6 25% 9987 69132 13701 44%
c d 22.55 28 214 0 24 6779 24 79973 13896 3.5 27 8 1 6 25% 9979 69132 13701 44%
c u 22.58 28 214 0 24 6779 24 79973 13341 3.5 27 8 1 6 25% 9982 69132 13701 44%
c v 22.61 28 214 0 24 6779 24 79973 12763 3.5 27 8 1 6 25% 9983 69132 13701 44%
c w 22.70 28 214 0 24 6779 24 79973 12715 3.5 27 8 1 6 25% 9983 69132 13701 44%
c x 22.76 28 214 0 24 6779 24 79973 12712 3.5 27 8 1 6 25% 10011 68609 13701 44%
c = 23.09 28 214 0 24 6779 24 79973 12712 3.5 27 8 1 6 25% 10655 68588 13378 43%
c d 23.10 28 214 0 24 6779 24 79973 12547 3.5 27 8 1 6 25% 9977 68588 13378 43%
c t 23.11 28 214 0 24 6779 24 79973 12547 3.5 27 8 1 6 25% 9898 68588 13378 43%
c f 23.12 28 214 0 24 6779 24 79973 12547 3.5 27 8 1 6 25% 9911 68512 13388 43%
c - 23.28 28 211 0 25 6907 24 81633 12008 3.5 27 8 1 6 25% 9934 68506 13388 43%
c - 23.85 28 206 0 26 7369 24 86633 14220 3.5 27 8 1 6 25% 9964 68504 13388 43%
c - 24.64 28 205 0 27 7988 24 91732 16277 3.5 28 8 1 6 26% 10005 68498 13388 43%
c s 25.29 28 203 0 27 8515 24 95841 20147 3.5 28 8 1 6 26% 10034 66075 13388 43%
c
c  seconds   switched     rate         size/glue tier1    binary         remaining
c         MB   reductions   conflicts        size  tier2     irredundant
c           level   restarts      redundant    glue   trail         variables
c
c e 25.37 28 203 0 27 8515 24 95841 20147 3.5 28 8 1 6 26% 6717 74042 11769 38%
c 2 25.37 28 203 0 27 8515 24 95841 20147 3.5 28 8 1 6 26% 6713 74042 11769 38%
c s 25.38 28 203 0 27 8515 24 95841 20147 3.5 28 8 1 6 26% 6727 73710 11769 38%
c e 25.39 28 203 0 27 8515 24 95841 20147 3.5 28 8 1 6 26% 6688 73849 11728 38%
c ^ 25.39 28 203 0 27 8515 24 95841 20147 3.5 28 8 1 6 26% 6688 73849 11728 38%
c - 25.49 28 201 0 28 8579 24 96928 13722 3.5 28 8 1 6 26% 6689 73849 11728 38%
c - 26.04 28 194 0 29 9079 24 102221 15926 3.4 28 8 1 6 26% 6710 73847 11728 38%
c d 26.30 28 191 0 29 9310 23 104625 18131 3.4 28 8 1 6 26% 6708 73847 11722 38%
c u 26.33 28 191 0 29 9310 23 104625 16338 3.4 28 8 1 6 26% 6731 73847 11722 38%
c v 26.39 28 191 0 29 9310 23 104625 13760 3.4 28 8 1 6 26% 6734 73847 11722 38%
c w 26.48 28 191 0 29 9310 23 104625 13737 3.4 28 8 1 6 26% 6734 73847 11722 38%
c x 26.54 28 191 0 29 9310 23 104625 13735 3.4 28 8 1 6 26% 6740 73719 11722 38%
c = 26.95 28 191 0 29 9310 23 104625 13735 3.4 28 8 1 6 26% 7018 73337 11537 37%
c d 26.95 28 191 0 29 9310 23 104625 13304 3.4 28 8 1 6 26% 6734 73326 11537 37%
c t 26.96 28 191 0 29 9310 23 104625 13304 3.4 28 8 1 6 26% 6588 73326 11537 37%
c f 27.01 28 191 0 29 9310 23 104625 13304 3.4 28 8 1 6 26% 6604 73222 11546 37%
c u 27.06 28 191 0 29 9310 23 104625 12746 3.4 28 8 1 6 26% 6594 73222 11544 37%
c v 27.09 28 191 0 29 9310 23 104625 12231 3.4 28 8 1 6 26% 6595 73222 11544 37%
c w 27.18 28 191 0 29 9310 23 104625 12121 3.4 28 8 1 6 26% 6595 73222 11544 37%
c t 27.58 28 191 0 29 9310 23 104625 12121 3.4 28 8 1 6 26% 6585 73222 11544 37%
c
c  seconds   switched     rate          size/glue tier1    binary         remaining
c         MB   reductions   conflicts         size  tier2     irredundant
c           level   restarts       redundant    glue   trail         variables
c
c - 27.71 28 185 0 30 9487 23 107608 12522 3.4 27 8 1 6 25% 6597 73218 11544 37%
c i 27.79 28 181 0 30 9587 22 109991 14706 3.3 27 8 1 6 25% 6614 73217 11543 37%
c o 27.82 28 180 0 30 9618 22 110509 15159 3.3 27 8 1 6 25% 6617 73217 11543 37%
c i 27.90 28 178 0 30 9787 22 111810 16393 3.3 27 8 1 6 25% 6620 73217 11542 37%
c i 27.92 28 177 0 30 9843 22 112170 16719 3.3 27 8 1 6 24% 6624 73217 11541 37%
c - 27.96 28 175 0 31 9900 22 113085 14272 3.3 26 8 1 6 24% 6624 73216 11541 37%
c i 27.98 28 172 0 31 9900 21 114382 15427 3.3 26 8 1 6 24% 6627 73215 11539 37%
c i 28.03 28 171 0 31 9981 21 115405 16354 3.3 26 8 1 6 24% 6633 73215 11538 37%
c - 28.22 28 166 0 32 10266 20 118652 15752 3.2 26 8 1 5 23% 6629 73215 11538 37%
c i 28.28 28 164 0 32 10379 20 119572 16598 3.2 26 8 1 5 23% 6636 73215 11537 37%
c i 28.49 28 159 0 32 10706 20 123239 20047 3.2 26 8 1 5 23% 6641 73215 11536 37%
c - 28.57 28 157 0 33 10815 20 124308 17413 3.1 25 8 1 5 22% 6636 73215 11536 37%
c - 29.00 28 150 0 34 11500 19 130054 18738 3.1 25 8 1 5 22% 6641 73215 11536 37%
c i 29.05 28 149 0 34 11581 19 130800 19430 3.1 25 8 1 5 22% 6644 73215 11535 37%
c i 29.09 28 148 0 34 11633 19 131405 19989 3.1 25 8 1 5 21% 6650 73215 11534 37%
c i 29.09 28 148 0 34 11633 19 131424 20002 3.1 25 8 1 5 21% 6653 73215 11531 37%
c i 29.09 28 148 0 34 11633 19 131425 19999 3.1 25 8 1 5 21% 6653 73215 11528 37%
c i 29.09 28 148 0 34 11633 19 131426 19999 3.1 25 8 1 5 21% 6653 73215 11525 37%
c d 29.19 28 146 0 34 11762 18 132899 21233 3.1 25 8 1 5 21% 6720 73049 11523 37%
c d 29.19 28 146 0 34 11762 18 132899 21194 3.1 25 8 1 5 21% 6677 73036 11503 37%
c
c  seconds   switched      rate          size/glue tier1    binary         remaining
c         MB   reductions    conflicts         size  tier2     irredundant
c           level   restarts        redundant    glue   trail         variables
c
c b 29.20 28 146 0 34 11762 18 132899 21194 3.1 25 8 1 5 21% 6677 73036 11501 37%
c u 29.24 28 146 0 34 11762 18 132899 19137 3.1 25 8 1 5 21% 6719 73036 11491 37%
c v 29.27 28 146 0 34 11762 18 132899 18251 3.1 25 8 1 5 21% 6717 73036 11491 37%
c w 29.29 28 146 0 34 11762 18 132899 18243 3.1 25 8 1 5 21% 6716 73036 11491 37%
c x 29.33 28 146 0 34 11762 18 132899 18242 3.1 25 8 1 5 21% 6755 72912 11491 37%
c d 29.34 28 146 0 34 11762 18 132899 18220 3.1 25 8 1 5 21% 6733 72885 11480 37%
c t 29.34 28 146 0 34 11762 18 132899 18220 3.1 25 8 1 5 21% 6700 72885 11478 37%
c b 29.34 28 146 0 34 11762 18 132899 18220 3.1 25 8 1 5 21% 6700 72885 11476 37%
c b 29.36 28 146 0 34 11762 18 132899 18219 3.1 25 8 1 5 21% 6708 72857 11474 37%
c u 29.38 28 146 0 34 11762 18 132899 17895 3.1 25 8 1 5 21% 6713 72857 11467 37%
c v 29.45 28 146 0 34 11762 18 132899 16119 3.1 25 8 1 5 21% 6735 72857 11465 37%
c w 29.48 28 146 0 34 11762 18 132899 16089 3.1 25 8 1 5 21% 6730 72857 11465 37%
c d 29.73 28 146 0 34 11762 18 132899 16076 3.1 25 8 1 5 21% 6743 72779 11461 37%
c d 29.73 28 146 0 34 11762 18 132899 16074 3.1 25 8 1 5 21% 6735 72775 11455 37%
c t 29.74 28 146 0 34 11762 18 132899 16074 3.1 25 8 1 5 21% 6721 72775 11454 37%
c i 29.74 28 146 0 34 11762 18 132899 16074 3.1 25 8 1 5 21% 6718 72775 11454 37%
c i 29.76 28 146 0 34 11785 18 133141 16281 3.1 25 8 1 5 21% 6723 72775 11452 37%
c i 29.76 28 146 0 34 11785 18 133142 16281 3.1 25 8 1 5 21% 6723 72775 11265 36%
c } 29.76 28 146 0 34 11785 18 133144 16281 3.1 25 8 1 5 21% 6723 72775 11259 36%
c 0 29.76 28 146 0 34 11785 18 133144 16281 3.1 25 8 1 5 21% 6723 72775 11259 36%
c
c ---- [ result ] ------------------------------------------------------------
c
s UNSATISFIABLE
c
c ---- [ profiling ] ---------------------------------------------------------
c
c          19.68   66.15 %  search
c          19.68   66.15 %  focused
c           9.46   31.78 %  simplify
c           9.19   30.89 %  probe
c           3.78   12.69 %  sweep
c           3.30   11.10 %  vivify
c           0.71    2.39 %  factor
c           0.65    2.17 %  congruence
c           0.58    1.96 %  eliminate
c           0.54    1.83 %  substitute
c           0.53    1.77 %  preprocess
c           0.20    0.67 %  fastel
c           0.18    0.62 %  reduce
c           0.14    0.47 %  transitive
c           0.11    0.37 %  subsume
c           0.07    0.24 %  backbone
c           0.05    0.17 %  lucky
c           0.04    0.12 %  parse
c =============================================
c          29.76  100.00 %  total
c
c ---- [ statistics ] --------------------------------------------------------
c
c chronological:                         4921                4 %  conflicts
c conflicts:                           133144             4473.97 per second
c congruent:                             3852               12 %  variables
c decisions:                          2624391               19.71 per conflict
c eliminated:                           13509               44 %  variables
c factored:                              4759               15 %  variables
c fast_eliminated:                       9211               68 %  eliminated
c fast_strengthened:                       16                1 %  per strengthened
c fast_subsumed:                           59                0 %  per subsumed
c iterations:                              15                0 %  variables
c propagations:                     114750000          3855886    per second
c reductions:                              34             3916    interval
c reordered:                                5            26629    interval
c restarts:                             11785               11    interval
c strengthened:                          1257                0 %  checks
c substituted:                          10649               34 %  variables
c subsumed:                             20610                1 %  checks
c switched:                                 0                0    interval
c vivified:                             64310               13 %  checks
c
c ---- [ glue usage ] --------------------------------------------------------
c
c focused glue 1 used 239043 clauses 59.56% accumulated 59.56% tier1
c focused glue 2 used  77117 clauses 19.21% accumulated 78.77%
c focused glue 3 used  23622 clauses  5.89% accumulated 84.66%
c focused glue 4 used  14574 clauses  3.63% accumulated 88.29%
c focused glue 5 used   9790 clauses  2.44% accumulated 90.73% tier2
c
c ---- [ resources ] ---------------------------------------------------------
c
c maximum-resident-set-size:         29614080 bytes         28 MB
c process-time:                            30s              29.76 seconds
c
c ---- [ shutting down ] -----------------------------------------------------
c
c exit 20
